200 783 
1 5 1
1 7 1
1 9 1
1 10 1
1 12 1
1 14 1
1 16 1
1 38 1
1 42 1
1 75 1
1 79 1
1 84 1
1 113 1
1 128 1
1 146 1
1 151 1
2 5 1
2 6 1
2 7 1
2 9 1
2 17 1
2 18 1
2 20 1
2 24 1
2 38 1
2 44 1
2 45 1
2 46 1
2 53 1
2 54 1
2 61 1
2 64 1
2 67 1
2 84 1
2 88 1
2 93 1
2 126 1
2 130 1
2 132 1
2 135 1
2 137 1
2 139 1
2 148 1
2 153 1
2 154 1
3 5 1
3 6 1
3 8 1
3 9 1
3 11 1
3 19 1
3 23 1
3 31 1
3 43 1
3 44 1
3 53 1
3 63 1
3 109 1
3 112 1
3 134 1
4 5 1
4 6 1
4 7 1
4 8 1
4 10 1
4 13 1
4 15 1
4 21 1
4 26 1
4 27 1
4 28 1
4 30 1
4 33 1
4 37 1
4 47 1
4 48 1
4 49 1
4 53 1
4 81 1
4 122 1
4 127 1
4 128 1
4 139 1
4 167 1
4 182 1
5 6 1
5 7 1
5 8 1
5 9 1
5 14 1
5 16 1
5 17 1
5 19 1
5 32 1
5 39 1
5 42 1
5 43 1
5 45 1
5 47 1
5 50 1
5 51 1
5 52 1
5 63 1
5 66 1
5 67 1
5 70 1
5 75 1
5 79 1
5 80 1
5 82 1
5 85 1
5 86 1
5 87 1
5 92 1
5 94 1
5 95 1
5 101 1
5 106 1
5 110 1
5 120 1
5 127 1
5 134 1
5 152 1
5 153 1
5 157 1
5 162 1
5 171 1
5 190 1
5 192 1
6 8 1
6 12 1
6 15 1
6 19 1
6 20 1
6 21 1
6 22 1
6 23 1
6 25 1
6 32 1
6 36 1
6 43 1
6 44 1
6 62 1
6 71 1
6 74 1
6 78 1
6 93 1
6 122 1
6 138 1
6 145 1
6 149 1
6 172 1
6 186 1
6 193 1
7 11 1
7 13 1
7 15 1
7 20 1
7 30 1
7 33 1
7 37 1
7 40 1
7 42 1
7 46 1
7 47 1
7 50 1
7 51 1
7 52 1
7 58 1
7 68 1
7 77 1
7 78 1
7 81 1
7 83 1
7 87 1
7 89 1
7 91 1
7 97 1
7 100 1
7 103 1
7 104 1
7 119 1
7 138 1
7 146 1
7 183 1
7 187 1
7 190 1
8 10 1
8 11 1
8 14 1
8 17 1
8 39 1
8 44 1
8 50 1
8 56 1
8 67 1
8 120 1
8 160 1
8 194 1
9 10 1
9 12 1
9 13 1
9 17 1
9 18 1
9 21 1
9 26 1
9 48 1
9 62 1
9 66 1
9 71 1
9 72 1
9 78 1
9 80 1
9 98 1
9 107 1
9 111 1
9 112 1
9 122 1
9 131 1
9 143 1
9 161 1
9 164 1
9 167 1
9 178 1
9 180 1
9 185 1
10 11 1
10 12 1
10 13 1
10 18 1
10 20 1
10 22 1
10 28 1
10 56 1
10 65 1
10 87 1
10 93 1
10 95 1
10 109 1
10 116 1
10 142 1
10 150 1
10 156 1
11 24 1
11 37 1
11 46 1
11 103 1
12 24 1
12 40 1
12 41 1
12 74 1
12 97 1
12 195 1
13 14 1
13 16 1
13 25 1
13 35 1
13 76 1
13 137 1
13 150 1
13 164 1
13 173 1
13 174 1
14 15 1
14 16 1
14 24 1
14 63 1
14 94 1
14 100 1
14 101 1
14 105 1
14 124 1
14 141 1
14 180 1
14 188 1
15 18 1
15 29 1
15 33 1
15 35 1
15 48 1
15 54 1
15 64 1
15 69 1
15 96 1
15 111 1
15 155 1
16 22 1
16 23 1
16 31 1
16 39 1
16 57 1
16 74 1
16 76 1
16 107 1
16 120 1
16 122 1
16 135 1
16 178 1
16 181 1
17 19 1
17 25 1
17 26 1
17 27 1
17 29 1
17 32 1
17 34 1
17 35 1
17 38 1
17 59 1
17 61 1
17 78 1
17 84 1
17 90 1
17 108 1
17 127 1
17 156 1
17 164 1
17 188 1
17 192 1
18 29 1
18 104 1
18 154 1
18 169 1
19 31 1
19 62 1
19 69 1
19 106 1
19 116 1
19 127 1
19 166 1
19 194 1
20 21 1
20 22 1
20 23 1
20 27 1
20 28 1
20 29 1
20 36 1
20 50 1
20 54 1
20 58 1
20 60 1
20 76 1
20 85 1
20 89 1
20 100 1
20 117 1
20 124 1
20 149 1
20 152 1
20 167 1
20 186 1
20 200 1
21 25 1
21 30 1
21 32 1
21 42 1
21 68 1
21 70 1
21 73 1
21 82 1
21 99 1
21 118 1
21 141 1
21 144 1
21 152 1
21 165 1
21 179 1
22 34 1
22 41 1
22 45 1
22 56 1
22 58 1
22 72 1
22 83 1
22 90 1
22 91 1
22 93 1
22 101 1
22 108 1
22 118 1
22 121 1
22 131 1
22 143 1
22 189 1
23 28 1
23 33 1
23 35 1
23 43 1
23 65 1
23 97 1
23 99 1
23 116 1
23 172 1
24 56 1
24 63 1
24 73 1
24 133 1
24 157 1
24 174 1
24 189 1
24 194 1
25 26 1
25 27 1
25 30 1
25 31 1
25 36 1
25 38 1
25 40 1
25 47 1
25 52 1
25 57 1
25 59 1
25 61 1
25 64 1
25 71 1
25 113 1
25 124 1
25 136 1
25 137 1
25 151 1
25 154 1
25 166 1
25 175 1
25 190 1
25 196 1
26 72 1
26 77 1
26 114 1
26 117 1
26 121 1
26 140 1
26 157 1
27 51 1
27 54 1
27 92 1
27 140 1
27 156 1
27 165 1
27 168 1
27 177 1
27 198 1
28 34 1
28 48 1
28 65 1
28 159 1
28 193 1
29 34 1
29 69 1
30 36 1
30 49 1
30 55 1
30 68 1
30 128 1
30 176 1
30 186 1
30 200 1
31 37 1
31 82 1
31 89 1
31 101 1
31 130 1
31 182 1
31 184 1
32 41 1
32 45 1
32 51 1
32 72 1
32 84 1
32 133 1
32 139 1
32 140 1
32 142 1
32 149 1
32 152 1
32 171 1
33 83 1
33 179 1
34 91 1
34 109 1
34 130 1
34 133 1
34 141 1
34 146 1
34 174 1
34 191 1
35 39 1
35 121 1
35 137 1
35 148 1
35 153 1
35 185 1
36 59 1
36 94 1
36 99 1
36 103 1
36 110 1
36 112 1
36 134 1
36 199 1
37 130 1
37 138 1
37 157 1
37 169 1
37 187 1
38 40 1
38 49 1
38 59 1
38 67 1
38 76 1
38 155 1
38 188 1
38 196 1
39 41 1
39 52 1
39 73 1
39 75 1
39 153 1
40 60 1
40 82 1
41 49 1
41 60 1
41 70 1
41 73 1
41 172 1
41 183 1
42 55 1
42 69 1
42 80 1
42 105 1
42 126 1
42 160 1
42 170 1
42 179 1
43 61 1
43 79 1
43 85 1
43 133 1
43 186 1
44 71 1
44 106 1
44 125 1
44 139 1
44 143 1
45 46 1
45 58 1
45 68 1
45 154 1
46 53 1
46 105 1
46 147 1
46 151 1
47 83 1
47 115 1
47 169 1
48 77 1
48 190 1
49 55 1
49 70 1
49 77 1
49 85 1
49 102 1
49 108 1
49 138 1
49 140 1
49 147 1
50 57 1
50 92 1
51 55 1
51 102 1
51 169 1
51 170 1
52 103 1
52 131 1
52 170 1
52 177 1
53 65 1
54 74 1
54 87 1
54 88 1
54 119 1
54 195 1
55 66 1
55 125 1
55 129 1
55 179 1
55 183 1
56 57 1
56 62 1
56 89 1
56 96 1
56 129 1
56 199 1
57 125 1
57 159 1
58 60 1
58 95 1
58 108 1
58 144 1
58 147 1
59 64 1
59 81 1
59 86 1
59 105 1
59 110 1
59 156 1
59 173 1
59 175 1
61 66 1
61 79 1
61 102 1
61 107 1
61 135 1
62 117 1
62 145 1
62 155 1
62 178 1
63 94 1
64 86 1
64 96 1
64 158 1
64 165 1
64 198 1
65 159 1
65 163 1
65 196 1
67 100 1
67 113 1
67 144 1
67 160 1
67 189 1
68 112 1
68 136 1
69 111 1
69 129 1
69 148 1
70 106 1
71 75 1
71 166 1
72 86 1
72 111 1
72 114 1
72 119 1
72 144 1
72 198 1
73 80 1
73 90 1
73 115 1
73 123 1
73 150 1
73 184 1
73 199 1
74 81 1
74 88 1
74 107 1
74 132 1
74 150 1
74 163 1
74 174 1
74 191 1
74 195 1
75 128 1
76 90 1
76 113 1
76 134 1
76 175 1
76 180 1
76 197 1
78 88 1
78 98 1
78 126 1
78 162 1
78 168 1
79 95 1
79 96 1
79 97 1
79 104 1
79 118 1
79 162 1
80 99 1
80 117 1
80 123 1
80 161 1
81 102 1
82 151 1
83 148 1
84 91 1
85 188 1
87 92 1
87 109 1
89 173 1
90 172 1
91 123 1
91 131 1
91 145 1
92 98 1
92 132 1
92 171 1
92 177 1
93 196 1
94 98 1
95 116 1
95 177 1
97 104 1
98 121 1
99 175 1
99 183 1
99 194 1
99 195 1
101 115 1
102 114 1
102 118 1
103 143 1
104 125 1
104 162 1
105 198 1
107 110 1
107 142 1
110 115 1
110 120 1
112 114 1
112 164 1
112 189 1
113 132 1
113 163 1
114 119 1
116 192 1
117 124 1
117 161 1
117 168 1
118 126 1
118 176 1
119 160 1
119 171 1
121 123 1
122 159 1
123 145 1
123 147 1
123 149 1
123 176 1
123 182 1
123 184 1
123 200 1
124 197 1
127 129 1
128 136 1
131 181 1
132 136 1
132 163 1
133 135 1
133 141 1
133 158 1
134 142 1
134 197 1
136 181 1
136 184 1
138 158 1
138 197 1
139 146 1
139 165 1
139 187 1
140 158 1
143 167 1
143 180 1
144 166 1
145 168 1
145 176 1
145 185 1
145 187 1
149 155 1
151 173 1
152 181 1
152 182 1
157 193 1
158 170 1
160 178 1
169 191 1
174 191 1
174 193 1
178 199 1
181 192 1
182 185 1
196 200 1
